
List of user-set options:

                                    Name   Value                used
                        file_print_level = 5                     yes
                   hessian_approximation = limited-memory        yes
                           linear_solver = mumps                 yes
                                max_iter = 150                   yes
                             output_file = IPOPT.out             yes
                             print_level = 0                     yes
                      print_user_options = yes                   yes
                                      sb = yes                   yes
                                     tol = 1e-05                 yes
This is Ipopt version 3.14.4, running with linear solver MUMPS 5.2.1.

Number of nonzeros in equality constraint Jacobian...:     4096
Number of nonzeros in inequality constraint Jacobian.:        0
Number of nonzeros in Lagrangian Hessian.............:        0

Total number of variables............................:     4096
                     variables with only lower bounds:        0
                variables with lower and upper bounds:     4096
                     variables with only upper bounds:        0
Total number of equality constraints.................:        1
Total number of inequality constraints...............:        0
        inequality constraints with only lower bounds:        0
   inequality constraints with lower and upper bounds:        0
        inequality constraints with only upper bounds:        0

iter    objective    inf_pr   inf_du lg(mu)  ||d||  lg(rg) alpha_du alpha_pr  ls
   0  1.9839431e+06 1.55e-14 1.00e+02   0.0 0.00e+00    -  0.00e+00 0.00e+00   0
   1  1.2449498e+06 1.67e-16 4.80e+01   1.1 1.28e+01    -  5.00e-01 1.50e-02f  3
   2  9.2077772e+05 1.44e-15 1.60e+01  -0.4 2.60e-01    -  5.55e-01 1.00e+00f  1
   3  6.8218554e+05 1.47e-15 1.05e+01   0.0 3.10e-01    -  1.00e+00 1.00e+00f  1
   4  5.5245915e+05 5.00e-16 4.56e+00  -1.3 2.64e-01    -  7.44e-01 7.69e-01f  1
   5  4.1520276e+05 9.99e-16 4.87e+00  -1.1 2.70e-01    -  9.93e-01 9.31e-01f  1
   6  3.0200525e+05 7.77e-16 3.17e+00  -1.2 4.59e-01    -  9.83e-01 6.81e-01f  1
   7  5.5195755e+05 2.22e-16 1.49e+02   0.2 3.33e+00    -  1.65e-01 1.61e-01f  1
   8  4.0899801e+05 6.66e-16 3.26e+00  -0.6 7.46e-01    -  5.02e-01 6.89e-01f  1
   9  3.4148044e+05 5.55e-17 9.68e+00  -0.6 7.46e-01    -  1.00e+00 5.03e-01f  1
iter    objective    inf_pr   inf_du lg(mu)  ||d||  lg(rg) alpha_du alpha_pr  ls
  10  2.9330460e+05 3.61e-16 5.41e+01  -0.6 2.94e-01    -  1.00e+00 1.00e+00f  1
  11  4.4515594e+05 4.16e-16 9.56e+00  -0.3 2.92e-01    -  8.43e-01 1.00e+00f  1
  12  3.8561002e+05 3.61e-16 3.17e+00  -0.4 9.90e-01    -  5.41e-01 3.99e-01f  1
  13  2.8804251e+05 3.05e-16 3.75e+01  -1.1 5.00e-01    -  6.01e-01 6.21e-01f  1
  14  4.0072306e+05 3.33e-16 3.31e+00  -0.3 3.42e-01    -  1.00e+00 1.00e+00f  1
  15  3.2293712e+05 6.38e-16 3.59e+00  -0.4 3.66e-01    -  4.15e-01 1.00e+00f  1
  16  2.4458887e+05 7.22e-16 2.62e+00  -1.1 4.63e-01    -  5.90e-01 7.30e-01f  1
  17  2.1926878e+05 5.55e-17 1.76e+00  -0.9 3.34e-01    -  9.83e-01 5.24e-01f  1
  18  1.6762088e+05 5.83e-16 2.80e+00  -1.0 4.55e-01    -  9.15e-01 9.09e-01f  1
  19  1.6587646e+05 5.55e-16 2.17e+00  -1.0 1.82e-01    -  9.38e-01 1.00e+00f  1
iter    objective    inf_pr   inf_du lg(mu)  ||d||  lg(rg) alpha_du alpha_pr  ls
  20  1.4313142e+05 4.44e-16 1.06e+00  -1.4 2.52e-01    -  9.47e-01 9.44e-01f  1
  21  1.3576014e+05 5.55e-17 4.53e-01  -1.4 3.87e-01    -  8.60e-01 4.96e-01f  1
  22  1.2543056e+05 5.55e-17 5.54e-01  -1.4 4.97e-01    -  8.54e-01 6.64e-01f  1
  23  1.1761817e+05 6.94e-16 1.17e+00  -1.6 1.09e+00    -  9.82e-01 4.95e-01f  1
  24  1.0972537e+05 4.44e-16 3.68e-01  -1.7 8.21e-01    -  9.80e-01 5.28e-01f  1
  25  1.0545724e+05 2.78e-17 3.27e-01  -1.8 6.91e-01    -  9.40e-01 3.64e-01f  1
  26  1.0185331e+05 1.39e-16 3.92e-01  -1.8 6.10e-01    -  8.19e-01 5.60e-01f  1
  27  9.8979926e+04 2.22e-16 3.16e-01  -1.8 5.58e-01    -  9.01e-01 7.73e-01f  1
  28  9.6018709e+04 6.38e-16 3.64e-01  -2.0 5.31e-01    -  9.89e-01 4.71e-01f  1
  29  9.2942041e+04 4.72e-16 5.52e-01  -2.2 7.29e-01    -  9.86e-01 3.61e-01f  1
iter    objective    inf_pr   inf_du lg(mu)  ||d||  lg(rg) alpha_du alpha_pr  ls
  30  8.9679234e+04 4.72e-16 2.21e-01  -2.1 5.16e-01    -  9.75e-01 5.66e-01f  1
  31  8.7683863e+04 7.77e-16 2.86e-01  -2.1 4.01e-01    -  9.09e-01 7.03e-01f  1
  32  8.5782564e+04 2.50e-16 3.15e-01  -2.2 7.40e-01    -  9.97e-01 4.81e-01f  1
  33  8.4168990e+04 5.00e-16 2.63e-01  -2.3 7.64e-01    -  9.96e-01 3.71e-01f  1
  34  8.2396061e+04 3.61e-16 7.45e-01  -2.3 9.01e-01    -  9.85e-01 4.89e-01f  1
  35  8.4869645e+04 3.05e-16 1.23e+00  -2.0 4.29e-01    -  7.01e-01 3.93e-01f  2
  36  8.4244281e+04 5.55e-16 3.51e-01  -2.2 1.90e-01    -  1.00e+00 4.13e-01f  1
  37  8.3252428e+04 1.86e-15 3.03e-01  -2.2 1.29e-01    -  1.00e+00 1.00e+00f  1
  38  8.3365196e+04 7.49e-16 1.45e-01  -2.2 2.44e-01    -  1.00e+00 8.04e-01f  1
  39  8.3099581e+04 6.94e-16 3.43e-01  -2.2 9.40e-01    -  9.67e-01 3.61e-01f  1
iter    objective    inf_pr   inf_du lg(mu)  ||d||  lg(rg) alpha_du alpha_pr  ls
  40  8.3035187e+04 1.67e-16 2.10e-01  -2.2 2.86e-01    -  1.00e+00 7.98e-01f  1
  41  8.2828352e+04 5.27e-16 2.23e-01  -2.2 8.11e-01    -  5.22e-01 3.90e-01f  1
  42  8.2744565e+04 2.50e-16 2.26e-01  -2.2 4.95e-01    -  1.00e+00 5.23e-01f  1
  43  8.2657490e+04 1.11e-16 1.82e-01  -2.2 4.20e-01    -  1.00e+00 7.11e-01f  1
  44  8.2403058e+04 2.78e-16 2.49e-01  -2.2 2.36e-01    -  1.00e+00 1.00e+00f  1
  45  8.2335647e+04 0.00e+00 5.79e-01  -2.2 2.48e-01    -  1.00e+00 1.00e+00f  1
  46  7.9372642e+04 3.33e-16 1.41e-01  -2.4 2.75e-01    -  9.39e-01 1.00e+00f  1
  47  7.7689135e+04 8.33e-17 1.03e-01  -2.8 2.43e-01    -  9.96e-01 3.82e-01f  1
  48  7.5859170e+04 4.16e-16 1.07e-01  -3.1 5.72e-01    -  1.00e+00 3.53e-01f  1
  49  7.4914373e+04 2.78e-17 1.07e-01  -2.9 6.86e-01    -  9.85e-01 3.09e-01f  1
iter    objective    inf_pr   inf_du lg(mu)  ||d||  lg(rg) alpha_du alpha_pr  ls
  50  7.5183401e+04 4.72e-16 4.29e-01  -2.4 1.45e+00    -  9.96e-01 6.72e-02f  3
  51  7.5559501e+04 3.05e-16 3.51e-01  -2.6 1.82e-01    -  7.93e-01 9.57e-01f  1
  52  7.5646945e+04 1.11e-16 2.06e-01  -2.6 2.66e-01    -  1.00e+00 8.84e-01f  1
  53  7.5480037e+04 1.11e-16 2.04e-01  -2.6 7.26e-02    -  1.00e+00 1.00e+00f  1
  54  7.5354672e+04 5.55e-17 1.64e-01  -2.6 2.24e-01    -  5.74e-01 7.47e-01f  1
  55  7.5331669e+04 5.55e-17 3.85e-01  -2.6 6.18e-01    -  4.05e-01 4.14e-01f  1
  56  7.5334214e+04 1.94e-16 6.70e-01  -2.6 7.67e-01    -  1.00e+00 4.34e-01f  1
  57  7.5277869e+04 2.50e-16 2.97e-01  -2.6 3.86e-01    -  8.89e-01 6.50e-01f  1
  58  7.5116120e+04 3.61e-16 1.50e-01  -2.6 1.37e-01    -  9.35e-01 1.00e+00f  1
  59  7.5053993e+04 6.38e-16 1.33e-01  -2.6 6.25e-01    -  8.35e-01 2.45e-01f  1
iter    objective    inf_pr   inf_du lg(mu)  ||d||  lg(rg) alpha_du alpha_pr  ls
  60  7.4927358e+04 1.39e-16 1.28e-01  -2.6 2.20e+00    -  5.46e-01 1.84e-01f  1
  61  7.4873746e+04 3.33e-16 2.28e-01  -2.6 7.95e-01    -  4.73e-01 4.24e-01f  1
  62  7.4020646e+04 3.33e-16 2.27e-01  -2.8 5.97e-01    -  9.91e-01 4.25e-01f  1
  63  7.3137898e+04 6.11e-16 1.46e-01  -2.9 5.31e-01    -  9.93e-01 3.49e-01f  1
  64  7.2866271e+04 7.49e-16 9.65e-02  -2.9 4.47e-01    -  9.90e-01 2.48e-01f  1
  65  7.2679961e+04 2.22e-16 1.02e-01  -2.8 9.80e-01    -  8.85e-01 2.35e-01f  1
  66  7.3261766e+04 6.66e-16 1.61e-01  -2.6 7.83e-01    -  9.40e-01 2.24e-01f  1
  67  7.3246090e+04 5.00e-16 5.59e+00  -2.7 1.56e-01    -  8.13e-01 5.00e-01f  2
  68  7.3246090e+04 5.27e-16 5.26e+00  -2.7 1.31e+00    -  2.86e-01 2.77e-01f  1
  69  7.3246090e+04 2.50e-16 5.01e+00  -2.7 5.49e-01    -  5.57e-01 3.50e-01f  1
iter    objective    inf_pr   inf_du lg(mu)  ||d||  lg(rg) alpha_du alpha_pr  ls
  70  7.3246090e+04 4.72e-16 4.84e+00  -2.7 4.26e-01    -  1.00e+00 3.11e-01f  1
  71  7.3246090e+04 5.00e-16 5.98e-01  -2.7 4.63e-02    -  8.77e-01 1.00e+00f  1
  72  7.3246090e+04 8.88e-16 9.61e-02  -2.7 9.86e-02    -  9.49e-01 1.00e+00f  1
  73  7.3246090e+04 8.88e-16 2.04e-01  -2.7 2.07e-01    -  9.85e-01 1.00e+00f  1
  74  7.3246090e+04 1.94e-16 3.52e-02  -2.7 3.52e-02    -  9.76e-01 1.00e+00f  1
  75  7.3246090e+04 6.66e-16 3.06e-02  -2.7 3.06e-02    -  1.00e+00 1.00e+00f  1
  76  7.3246090e+04 1.67e-16 2.58e-02  -2.7 2.58e-02    -  1.00e+00 1.00e+00f  1
  77  7.3246090e+04 4.72e-16 2.32e-02  -2.7 2.32e-02    -  1.00e+00 1.00e+00f  1
  78  7.3246090e+04 3.05e-16 2.11e-02  -2.7 2.11e-02    -  1.00e+00 1.00e+00f  1
  79  7.3246090e+04 4.72e-16 1.94e-02  -2.7 1.94e-02    -  1.00e+00 1.00e+00f  1
iter    objective    inf_pr   inf_du lg(mu)  ||d||  lg(rg) alpha_du alpha_pr  ls
  80  7.3246090e+04 8.33e-16 1.81e-02  -2.7 1.81e-02    -  1.00e+00 1.00e+00f  1
  81  7.3246090e+04 1.47e-15 7.30e-04  -4.1 7.30e-04    -  1.00e+00 1.00e+00f  1
  82  7.3246090e+04 6.66e-16 6.99e-06  -6.1 6.99e-06    -  1.00e+00 1.00e+00h  1
  83  7.3246090e+04 1.67e-16 1.79e-07  -7.7 1.79e-07    -  1.00e+00 1.00e+00h  1

Number of Iterations....: 83

                                   (scaled)                 (unscaled)
Objective...............:   1.4890733722635250e+02    7.3246089854512989e+04
Dual infeasibility......:   1.7914206918513024e-07    8.8118264288828438e-05
Constraint violation....:   1.6653345369377348e-16    1.6653345369377348e-16
Variable bound violation:   0.0000000000000000e+00    0.0000000000000000e+00
Complementarity.........:   1.8481813045588911e-08    9.0910264344713855e-06
Overall NLP error.......:   1.7914206918513024e-07    8.8118264288828438e-05


Number of objective function evaluations             = 91
Number of objective gradient evaluations             = 84
Number of equality constraint evaluations            = 91
Number of inequality constraint evaluations          = 0
Number of equality constraint Jacobian evaluations   = 84
Number of inequality constraint Jacobian evaluations = 0
Number of Lagrangian Hessian evaluations             = 0
Total seconds in IPOPT                               = 20.323

EXIT: Optimal Solution Found.
